42	0

0	2	2	3
2	2	4	5
6	1	5
10	1	6
3	1	6
2	2	7	8
4	2	9	10
4	2	9	10
6	2	11	12
6	2	11	12
8	1	13
1	1	13
7	1	14
7	1	15
4	2	16	17
10	1	18
10	1	18
3	1	19
9	1	20
5	1	21
3	1	22
9	1	23
4	1	24
3	1	25
3	1	26
1	1	27
1	1	28
7	1	29
2	1	30
4	1	31
4	3	32	34	36
6	1	33
2	1	35
8	1	35
10	1	37
10	1	37
4	1	38
10	1	39
10	1	40
9	1	41
10	1	42
0	0
